Configuration:
CPXPARAM_Advance=1
CPXPARAM_Barrier_Algorithm=0
CPXPARAM_Barrier_ColNonzeros=0
CPXPARAM_Barrier_Crossover=0
CPXPARAM_Barrier_Limits_Corrections=-1
CPXPARAM_Barrier_Ordering=2
CPXPARAM_Barrier_StartAlg=1
CPXPARAM_Emphasis_MIP=4
CPXPARAM_Emphasis_Memory=0
CPXPARAM_Emphasis_Numerical=0
CPXPARAM_Feasopt_Mode=0
CPXPARAM_LPMethod=0
CPXPARAM_MIP_Cuts_Cliques=0
CPXPARAM_MIP_Cuts_Covers=0
CPXPARAM_MIP_Cuts_Disjunctive=0
CPXPARAM_MIP_Cuts_FlowCovers=-1
CPXPARAM_MIP_Cuts_GUBCovers=1
CPXPARAM_MIP_Cuts_Gomory=0
CPXPARAM_MIP_Cuts_Implied=-1
CPXPARAM_MIP_Cuts_MIRCut=-1
CPXPARAM_MIP_Cuts_PathCut=0
CPXPARAM_MIP_Limits_AggForCut=2
CPXPARAM_MIP_Limits_CutPasses=0
CPXPARAM_MIP_Limits_CutsFactor=-1
CPXPARAM_MIP_Limits_GomoryCand=200
CPXPARAM_MIP_Limits_GomoryPass=0
CPXPARAM_MIP_Limits_Nodes=9223372036800000000
CPXPARAM_MIP_Limits_ProbeTime=1e+75
CPXPARAM_MIP_Limits_RepairTries=0
CPXPARAM_MIP_Limits_StrongCand=10
CPXPARAM_MIP_Limits_StrongIt=0
CPXPARAM_MIP_OrderType=0
CPXPARAM_MIP_Strategy_BBInterval=7
CPXPARAM_MIP_Strategy_Branch=0
CPXPARAM_MIP_Strategy_Dive=0
CPXPARAM_MIP_Strategy_File=1
CPXPARAM_MIP_Strategy_HeuristicFreq=0
CPXPARAM_MIP_Strategy_LBHeur=0
CPXPARAM_MIP_Strategy_NodeSelect=1
CPXPARAM_MIP_Strategy_Order=1
CPXPARAM_MIP_Strategy_PresolveNode=0
CPXPARAM_MIP_Strategy_Probe=0
CPXPARAM_MIP_Strategy_RINSHeur=0
CPXPARAM_MIP_Strategy_StartAlgorithm=0
CPXPARAM_MIP_Strategy_SubAlgorithm=2
CPXPARAM_MIP_Strategy_VariableSelect=0
CPXPARAM_Network_NetFind=2
CPXPARAM_Network_Pricing=0
CPXPARAM_Parallel=1
CPXPARAM_Preprocessing_Aggregator=-1
CPXPARAM_Preprocessing_BoundStrength=-1
CPXPARAM_Preprocessing_CoeffReduce=-1
CPXPARAM_Preprocessing_Dependency=-1
CPXPARAM_Preprocessing_Dual=-1
CPXPARAM_Preprocessing_Fill=10
CPXPARAM_Preprocessing_NumPass=-1
CPXPARAM_Preprocessing_Presolve=1
CPXPARAM_Preprocessing_QPMakePSD=1
CPXPARAM_Preprocessing_Reduce=3
CPXPARAM_Preprocessing_Relax=-1
CPXPARAM_Preprocessing_RepeatPresolve=-1
CPXPARAM_Preprocessing_Symmetry=1
CPXPARAM_Read_Scale=0
CPXPARAM_Sifting_Algorithm=0
CPXPARAM_Simplex_Crash=1
CPXPARAM_Simplex_DGradient=0
CPXPARAM_Simplex_Limits_Perturbation=0
CPXPARAM_Simplex_Limits_Singularity=10
CPXPARAM_Simplex_PGradient=3
CPXPARAM_Simplex_Pricing=0
CPXPARAM_Simplex_Refactor=0
ObjectiveValue=61.58
Gap=61.58
UpperBound=1.94062e+06
LowerBound=745564
SolverRuntimeSeconds=5.00551
SolverTerminationStatus=Normal
TimeEvaluated=407
MipStartUsed=0
ProducedMipStart=0
EndConfiguration
Configuration:
CPXPARAM_Advance=1
CPXPARAM_Barrier_Algorithm=0
CPXPARAM_Barrier_ColNonzeros=0
CPXPARAM_Barrier_Crossover=0
CPXPARAM_Barrier_Limits_Corrections=-1
CPXPARAM_Barrier_Ordering=2
CPXPARAM_Barrier_StartAlg=1
CPXPARAM_Emphasis_MIP=4
CPXPARAM_Emphasis_Memory=0
CPXPARAM_Emphasis_Numerical=0
CPXPARAM_Feasopt_Mode=0
CPXPARAM_LPMethod=0
CPXPARAM_MIP_Cuts_Cliques=0
CPXPARAM_MIP_Cuts_Covers=0
CPXPARAM_MIP_Cuts_Disjunctive=0
CPXPARAM_MIP_Cuts_FlowCovers=-1
CPXPARAM_MIP_Cuts_GUBCovers=1
CPXPARAM_MIP_Cuts_Gomory=0
CPXPARAM_MIP_Cuts_Implied=-1
CPXPARAM_MIP_Cuts_MIRCut=-1
CPXPARAM_MIP_Cuts_PathCut=0
CPXPARAM_MIP_Limits_AggForCut=2
CPXPARAM_MIP_Limits_CutPasses=0
CPXPARAM_MIP_Limits_CutsFactor=-1
CPXPARAM_MIP_Limits_GomoryCand=200
CPXPARAM_MIP_Limits_GomoryPass=0
CPXPARAM_MIP_Limits_Nodes=9223372036800000000
CPXPARAM_MIP_Limits_ProbeTime=1e+75
CPXPARAM_MIP_Limits_RepairTries=0
CPXPARAM_MIP_Limits_StrongCand=10
CPXPARAM_MIP_Limits_StrongIt=0
CPXPARAM_MIP_OrderType=0
CPXPARAM_MIP_Strategy_BBInterval=7
CPXPARAM_MIP_Strategy_Branch=0
CPXPARAM_MIP_Strategy_Dive=0
CPXPARAM_MIP_Strategy_File=1
CPXPARAM_MIP_Strategy_HeuristicFreq=0
CPXPARAM_MIP_Strategy_LBHeur=0
CPXPARAM_MIP_Strategy_NodeSelect=1
CPXPARAM_MIP_Strategy_Order=1
CPXPARAM_MIP_Strategy_PresolveNode=0
CPXPARAM_MIP_Strategy_Probe=0
CPXPARAM_MIP_Strategy_RINSHeur=0
CPXPARAM_MIP_Strategy_StartAlgorithm=0
CPXPARAM_MIP_Strategy_SubAlgorithm=2
CPXPARAM_MIP_Strategy_VariableSelect=0
CPXPARAM_Network_NetFind=2
CPXPARAM_Network_Pricing=0
CPXPARAM_Parallel=1
CPXPARAM_Preprocessing_Aggregator=-1
CPXPARAM_Preprocessing_BoundStrength=-1
CPXPARAM_Preprocessing_CoeffReduce=-1
CPXPARAM_Preprocessing_Dependency=-1
CPXPARAM_Preprocessing_Dual=-1
CPXPARAM_Preprocessing_Fill=10
CPXPARAM_Preprocessing_NumPass=-1
CPXPARAM_Preprocessing_Presolve=1
CPXPARAM_Preprocessing_QPMakePSD=1
CPXPARAM_Preprocessing_Reduce=3
CPXPARAM_Preprocessing_Relax=-1
CPXPARAM_Preprocessing_RepeatPresolve=-1
CPXPARAM_Preprocessing_Symmetry=0
CPXPARAM_Read_Scale=0
CPXPARAM_Sifting_Algorithm=0
CPXPARAM_Simplex_Crash=1
CPXPARAM_Simplex_DGradient=0
CPXPARAM_Simplex_Limits_Perturbation=0
CPXPARAM_Simplex_Limits_Singularity=10
CPXPARAM_Simplex_PGradient=3
CPXPARAM_Simplex_Pricing=0
CPXPARAM_Simplex_Refactor=0
ObjectiveValue=61.36
Gap=61.36
UpperBound=1.94062e+06
LowerBound=749761
SolverRuntimeSeconds=5.00655
SolverTerminationStatus=Normal
TimeEvaluated=412
MipStartUsed=0
ProducedMipStart=0
EndConfiguration
Configuration:
CPXPARAM_Advance=1
CPXPARAM_Barrier_Algorithm=0
CPXPARAM_Barrier_ColNonzeros=0
CPXPARAM_Barrier_Crossover=0
CPXPARAM_Barrier_Limits_Corrections=-1
CPXPARAM_Barrier_Ordering=2
CPXPARAM_Barrier_StartAlg=1
CPXPARAM_Emphasis_MIP=4
CPXPARAM_Emphasis_Memory=0
CPXPARAM_Emphasis_Numerical=0
CPXPARAM_Feasopt_Mode=0
CPXPARAM_LPMethod=0
CPXPARAM_MIP_Cuts_Cliques=0
CPXPARAM_MIP_Cuts_Covers=0
CPXPARAM_MIP_Cuts_Disjunctive=0
CPXPARAM_MIP_Cuts_FlowCovers=-1
CPXPARAM_MIP_Cuts_GUBCovers=1
CPXPARAM_MIP_Cuts_Gomory=0
CPXPARAM_MIP_Cuts_Implied=2
CPXPARAM_MIP_Cuts_MIRCut=-1
CPXPARAM_MIP_Cuts_PathCut=0
CPXPARAM_MIP_Limits_AggForCut=2
CPXPARAM_MIP_Limits_CutPasses=0
CPXPARAM_MIP_Limits_CutsFactor=-1
CPXPARAM_MIP_Limits_GomoryCand=200
CPXPARAM_MIP_Limits_GomoryPass=0
CPXPARAM_MIP_Limits_Nodes=9223372036800000000
CPXPARAM_MIP_Limits_ProbeTime=1e+75
CPXPARAM_MIP_Limits_RepairTries=0
CPXPARAM_MIP_Limits_StrongCand=10
CPXPARAM_MIP_Limits_StrongIt=0
CPXPARAM_MIP_OrderType=0
CPXPARAM_MIP_Strategy_BBInterval=7
CPXPARAM_MIP_Strategy_Branch=0
CPXPARAM_MIP_Strategy_Dive=0
CPXPARAM_MIP_Strategy_File=1
CPXPARAM_MIP_Strategy_HeuristicFreq=0
CPXPARAM_MIP_Strategy_LBHeur=0
CPXPARAM_MIP_Strategy_NodeSelect=1
CPXPARAM_MIP_Strategy_Order=1
CPXPARAM_MIP_Strategy_PresolveNode=0
CPXPARAM_MIP_Strategy_Probe=0
CPXPARAM_MIP_Strategy_RINSHeur=0
CPXPARAM_MIP_Strategy_StartAlgorithm=0
CPXPARAM_MIP_Strategy_SubAlgorithm=2
CPXPARAM_MIP_Strategy_VariableSelect=0
CPXPARAM_Network_NetFind=2
CPXPARAM_Network_Pricing=0
CPXPARAM_Parallel=1
CPXPARAM_Preprocessing_Aggregator=-1
CPXPARAM_Preprocessing_BoundStrength=-1
CPXPARAM_Preprocessing_CoeffReduce=-1
CPXPARAM_Preprocessing_Dependency=-1
CPXPARAM_Preprocessing_Dual=-1
CPXPARAM_Preprocessing_Fill=10
CPXPARAM_Preprocessing_NumPass=-1
CPXPARAM_Preprocessing_Presolve=1
CPXPARAM_Preprocessing_QPMakePSD=1
CPXPARAM_Preprocessing_Reduce=3
CPXPARAM_Preprocessing_Relax=-1
CPXPARAM_Preprocessing_RepeatPresolve=-1
CPXPARAM_Preprocessing_Symmetry=0
CPXPARAM_Read_Scale=0
CPXPARAM_Sifting_Algorithm=0
CPXPARAM_Simplex_Crash=1
CPXPARAM_Simplex_DGradient=0
CPXPARAM_Simplex_Limits_Perturbation=0
CPXPARAM_Simplex_Limits_Singularity=10
CPXPARAM_Simplex_PGradient=3
CPXPARAM_Simplex_Pricing=0
CPXPARAM_Simplex_Refactor=0
ObjectiveValue=59.99
Gap=59.99
UpperBound=1.79759e+06
LowerBound=719299
SolverRuntimeSeconds=5.00708
SolverTerminationStatus=Normal
TimeEvaluated=418
MipStartUsed=0
ProducedMipStart=0
EndConfiguration
Configuration:
CPXPARAM_Advance=1
CPXPARAM_Barrier_Algorithm=0
CPXPARAM_Barrier_ColNonzeros=0
CPXPARAM_Barrier_Crossover=0
CPXPARAM_Barrier_Limits_Corrections=-1
CPXPARAM_Barrier_Ordering=2
CPXPARAM_Barrier_StartAlg=1
CPXPARAM_Emphasis_MIP=0
CPXPARAM_Emphasis_Memory=0
CPXPARAM_Emphasis_Numerical=0
CPXPARAM_Feasopt_Mode=0
CPXPARAM_LPMethod=0
CPXPARAM_MIP_Cuts_Cliques=0
CPXPARAM_MIP_Cuts_Covers=0
CPXPARAM_MIP_Cuts_Disjunctive=0
CPXPARAM_MIP_Cuts_FlowCovers=-1
CPXPARAM_MIP_Cuts_GUBCovers=1
CPXPARAM_MIP_Cuts_Gomory=0
CPXPARAM_MIP_Cuts_Implied=2
CPXPARAM_MIP_Cuts_MIRCut=-1
CPXPARAM_MIP_Cuts_PathCut=0
CPXPARAM_MIP_Limits_AggForCut=2
CPXPARAM_MIP_Limits_CutPasses=0
CPXPARAM_MIP_Limits_CutsFactor=-1
CPXPARAM_MIP_Limits_GomoryCand=200
CPXPARAM_MIP_Limits_GomoryPass=0
CPXPARAM_MIP_Limits_Nodes=9223372036800000000
CPXPARAM_MIP_Limits_ProbeTime=1e+75
CPXPARAM_MIP_Limits_RepairTries=0
CPXPARAM_MIP_Limits_StrongCand=10
CPXPARAM_MIP_Limits_StrongIt=0
CPXPARAM_MIP_OrderType=0
CPXPARAM_MIP_Strategy_BBInterval=7
CPXPARAM_MIP_Strategy_Branch=0
CPXPARAM_MIP_Strategy_Dive=0
CPXPARAM_MIP_Strategy_File=1
CPXPARAM_MIP_Strategy_HeuristicFreq=0
CPXPARAM_MIP_Strategy_LBHeur=0
CPXPARAM_MIP_Strategy_NodeSelect=1
CPXPARAM_MIP_Strategy_Order=1
CPXPARAM_MIP_Strategy_PresolveNode=0
CPXPARAM_MIP_Strategy_Probe=0
CPXPARAM_MIP_Strategy_RINSHeur=0
CPXPARAM_MIP_Strategy_StartAlgorithm=0
CPXPARAM_MIP_Strategy_SubAlgorithm=2
CPXPARAM_MIP_Strategy_VariableSelect=0
CPXPARAM_Network_NetFind=2
CPXPARAM_Network_Pricing=0
CPXPARAM_Parallel=1
CPXPARAM_Preprocessing_Aggregator=-1
CPXPARAM_Preprocessing_BoundStrength=-1
CPXPARAM_Preprocessing_CoeffReduce=-1
CPXPARAM_Preprocessing_Dependency=-1
CPXPARAM_Preprocessing_Dual=-1
CPXPARAM_Preprocessing_Fill=10
CPXPARAM_Preprocessing_NumPass=-1
CPXPARAM_Preprocessing_Presolve=1
CPXPARAM_Preprocessing_QPMakePSD=1
CPXPARAM_Preprocessing_Reduce=3
CPXPARAM_Preprocessing_Relax=-1
CPXPARAM_Preprocessing_RepeatPresolve=-1
CPXPARAM_Preprocessing_Symmetry=0
CPXPARAM_Read_Scale=0
CPXPARAM_Sifting_Algorithm=0
CPXPARAM_Simplex_Crash=1
CPXPARAM_Simplex_DGradient=0
CPXPARAM_Simplex_Limits_Perturbation=0
CPXPARAM_Simplex_Limits_Singularity=10
CPXPARAM_Simplex_PGradient=3
CPXPARAM_Simplex_Pricing=0
CPXPARAM_Simplex_Refactor=0
ObjectiveValue=61.11
Gap=61.11
UpperBound=1.94062e+06
LowerBound=754752
SolverRuntimeSeconds=5.01023
SolverTerminationStatus=Normal
TimeEvaluated=423
MipStartUsed=0
ProducedMipStart=0
EndConfiguration
Configuration:
CPXPARAM_Advance=1
CPXPARAM_Barrier_Algorithm=0
CPXPARAM_Barrier_ColNonzeros=0
CPXPARAM_Barrier_Crossover=0
CPXPARAM_Barrier_Limits_Corrections=-1
CPXPARAM_Barrier_Ordering=2
CPXPARAM_Barrier_StartAlg=1
CPXPARAM_Emphasis_MIP=4
CPXPARAM_Emphasis_Memory=0
CPXPARAM_Emphasis_Numerical=0
CPXPARAM_Feasopt_Mode=0
CPXPARAM_LPMethod=0
CPXPARAM_MIP_Cuts_Cliques=0
CPXPARAM_MIP_Cuts_Covers=0
CPXPARAM_MIP_Cuts_Disjunctive=0
CPXPARAM_MIP_Cuts_FlowCovers=-1
CPXPARAM_MIP_Cuts_GUBCovers=1
CPXPARAM_MIP_Cuts_Gomory=0
CPXPARAM_MIP_Cuts_Implied=2
CPXPARAM_MIP_Cuts_MIRCut=-1
CPXPARAM_MIP_Cuts_PathCut=0
CPXPARAM_MIP_Limits_AggForCut=2
CPXPARAM_MIP_Limits_CutPasses=0
CPXPARAM_MIP_Limits_CutsFactor=-1
CPXPARAM_MIP_Limits_GomoryCand=200
CPXPARAM_MIP_Limits_GomoryPass=0
CPXPARAM_MIP_Limits_Nodes=9223372036800000000
CPXPARAM_MIP_Limits_ProbeTime=1e+75
CPXPARAM_MIP_Limits_RepairTries=0
CPXPARAM_MIP_Limits_StrongCand=10
CPXPARAM_MIP_Limits_StrongIt=0
CPXPARAM_MIP_OrderType=0
CPXPARAM_MIP_Strategy_BBInterval=7
CPXPARAM_MIP_Strategy_Branch=0
CPXPARAM_MIP_Strategy_Dive=0
CPXPARAM_MIP_Strategy_File=1
CPXPARAM_MIP_Strategy_HeuristicFreq=0
CPXPARAM_MIP_Strategy_LBHeur=0
CPXPARAM_MIP_Strategy_NodeSelect=1
CPXPARAM_MIP_Strategy_Order=1
CPXPARAM_MIP_Strategy_PresolveNode=0
CPXPARAM_MIP_Strategy_Probe=0
CPXPARAM_MIP_Strategy_RINSHeur=0
CPXPARAM_MIP_Strategy_StartAlgorithm=0
CPXPARAM_MIP_Strategy_SubAlgorithm=2
CPXPARAM_MIP_Strategy_VariableSelect=0
CPXPARAM_Network_NetFind=2
CPXPARAM_Network_Pricing=0
CPXPARAM_Parallel=1
CPXPARAM_Preprocessing_Aggregator=-1
CPXPARAM_Preprocessing_BoundStrength=-1
CPXPARAM_Preprocessing_CoeffReduce=-1
CPXPARAM_Preprocessing_Dependency=-1
CPXPARAM_Preprocessing_Dual=-1
CPXPARAM_Preprocessing_Fill=10
CPXPARAM_Preprocessing_NumPass=-1
CPXPARAM_Preprocessing_Presolve=1
CPXPARAM_Preprocessing_QPMakePSD=1
CPXPARAM_Preprocessing_Reduce=3
CPXPARAM_Preprocessing_Relax=1
CPXPARAM_Preprocessing_RepeatPresolve=-1
CPXPARAM_Preprocessing_Symmetry=0
CPXPARAM_Read_Scale=0
CPXPARAM_Sifting_Algorithm=0
CPXPARAM_Simplex_Crash=1
CPXPARAM_Simplex_DGradient=0
CPXPARAM_Simplex_Limits_Perturbation=0
CPXPARAM_Simplex_Limits_Singularity=10
CPXPARAM_Simplex_PGradient=3
CPXPARAM_Simplex_Pricing=0
CPXPARAM_Simplex_Refactor=0
ObjectiveValue=60.44
Gap=60.44
UpperBound=1.79759e+06
LowerBound=711192
SolverRuntimeSeconds=5.00658
SolverTerminationStatus=Normal
TimeEvaluated=428
MipStartUsed=0
ProducedMipStart=0
EndConfiguration
Configuration:
CPXPARAM_Advance=1
CPXPARAM_Barrier_Algorithm=0
CPXPARAM_Barrier_ColNonzeros=0
CPXPARAM_Barrier_Crossover=0
CPXPARAM_Barrier_Limits_Corrections=-1
CPXPARAM_Barrier_Ordering=2
CPXPARAM_Barrier_StartAlg=1
CPXPARAM_Emphasis_MIP=4
CPXPARAM_Emphasis_Memory=0
CPXPARAM_Emphasis_Numerical=0
CPXPARAM_Feasopt_Mode=0
CPXPARAM_LPMethod=0
CPXPARAM_MIP_Cuts_Cliques=0
CPXPARAM_MIP_Cuts_Covers=0
CPXPARAM_MIP_Cuts_Disjunctive=0
CPXPARAM_MIP_Cuts_FlowCovers=-1
CPXPARAM_MIP_Cuts_GUBCovers=1
CPXPARAM_MIP_Cuts_Gomory=0
CPXPARAM_MIP_Cuts_Implied=2
CPXPARAM_MIP_Cuts_MIRCut=-1
CPXPARAM_MIP_Cuts_PathCut=0
CPXPARAM_MIP_Limits_AggForCut=2
CPXPARAM_MIP_Limits_CutPasses=0
CPXPARAM_MIP_Limits_CutsFactor=-1
CPXPARAM_MIP_Limits_GomoryCand=200
CPXPARAM_MIP_Limits_GomoryPass=0
CPXPARAM_MIP_Limits_Nodes=9223372036800000000
CPXPARAM_MIP_Limits_ProbeTime=1e+75
CPXPARAM_MIP_Limits_RepairTries=0
CPXPARAM_MIP_Limits_StrongCand=10
CPXPARAM_MIP_Limits_StrongIt=0
CPXPARAM_MIP_OrderType=0
CPXPARAM_MIP_Strategy_BBInterval=7
CPXPARAM_MIP_Strategy_Branch=0
CPXPARAM_MIP_Strategy_Dive=0
CPXPARAM_MIP_Strategy_File=1
CPXPARAM_MIP_Strategy_HeuristicFreq=0
CPXPARAM_MIP_Strategy_LBHeur=0
CPXPARAM_MIP_Strategy_NodeSelect=1
CPXPARAM_MIP_Strategy_Order=1
CPXPARAM_MIP_Strategy_PresolveNode=0
CPXPARAM_MIP_Strategy_Probe=0
CPXPARAM_MIP_Strategy_RINSHeur=0
CPXPARAM_MIP_Strategy_StartAlgorithm=0
CPXPARAM_MIP_Strategy_SubAlgorithm=0
CPXPARAM_MIP_Strategy_VariableSelect=0
CPXPARAM_Network_NetFind=2
CPXPARAM_Network_Pricing=0
CPXPARAM_Parallel=1
CPXPARAM_Preprocessing_Aggregator=-1
CPXPARAM_Preprocessing_BoundStrength=-1
CPXPARAM_Preprocessing_CoeffReduce=-1
CPXPARAM_Preprocessing_Dependency=-1
CPXPARAM_Preprocessing_Dual=-1
CPXPARAM_Preprocessing_Fill=10
CPXPARAM_Preprocessing_NumPass=-1
CPXPARAM_Preprocessing_Presolve=1
CPXPARAM_Preprocessing_QPMakePSD=1
CPXPARAM_Preprocessing_Reduce=3
CPXPARAM_Preprocessing_Relax=-1
CPXPARAM_Preprocessing_RepeatPresolve=-1
CPXPARAM_Preprocessing_Symmetry=0
CPXPARAM_Read_Scale=0
CPXPARAM_Sifting_Algorithm=0
CPXPARAM_Simplex_Crash=1
CPXPARAM_Simplex_DGradient=0
CPXPARAM_Simplex_Limits_Perturbation=0
CPXPARAM_Simplex_Limits_Singularity=10
CPXPARAM_Simplex_PGradient=3
CPXPARAM_Simplex_Pricing=0
CPXPARAM_Simplex_Refactor=0
ObjectiveValue=60.44
Gap=60.44
UpperBound=1.79759e+06
LowerBound=711192
SolverRuntimeSeconds=5.00745
SolverTerminationStatus=Normal
TimeEvaluated=433
MipStartUsed=0
ProducedMipStart=0
EndConfiguration
Configuration:
CPXPARAM_Advance=1
CPXPARAM_Barrier_Algorithm=0
CPXPARAM_Barrier_ColNonzeros=0
CPXPARAM_Barrier_Crossover=0
CPXPARAM_Barrier_Limits_Corrections=-1
CPXPARAM_Barrier_Ordering=2
CPXPARAM_Barrier_StartAlg=1
CPXPARAM_Emphasis_MIP=4
CPXPARAM_Emphasis_Memory=0
CPXPARAM_Emphasis_Numerical=0
CPXPARAM_Feasopt_Mode=0
CPXPARAM_LPMethod=0
CPXPARAM_MIP_Cuts_Cliques=0
CPXPARAM_MIP_Cuts_Covers=0
CPXPARAM_MIP_Cuts_Disjunctive=0
CPXPARAM_MIP_Cuts_FlowCovers=-1
CPXPARAM_MIP_Cuts_GUBCovers=1
CPXPARAM_MIP_Cuts_Gomory=0
CPXPARAM_MIP_Cuts_Implied=2
CPXPARAM_MIP_Cuts_MIRCut=0
CPXPARAM_MIP_Cuts_PathCut=0
CPXPARAM_MIP_Limits_AggForCut=2
CPXPARAM_MIP_Limits_CutPasses=0
CPXPARAM_MIP_Limits_CutsFactor=-1
CPXPARAM_MIP_Limits_GomoryCand=200
CPXPARAM_MIP_Limits_GomoryPass=0
CPXPARAM_MIP_Limits_Nodes=9223372036800000000
CPXPARAM_MIP_Limits_ProbeTime=1e+75
CPXPARAM_MIP_Limits_RepairTries=0
CPXPARAM_MIP_Limits_StrongCand=10
CPXPARAM_MIP_Limits_StrongIt=0
CPXPARAM_MIP_OrderType=0
CPXPARAM_MIP_Strategy_BBInterval=7
CPXPARAM_MIP_Strategy_Branch=0
CPXPARAM_MIP_Strategy_Dive=0
CPXPARAM_MIP_Strategy_File=1
CPXPARAM_MIP_Strategy_HeuristicFreq=0
CPXPARAM_MIP_Strategy_LBHeur=0
CPXPARAM_MIP_Strategy_NodeSelect=1
CPXPARAM_MIP_Strategy_Order=1
CPXPARAM_MIP_Strategy_PresolveNode=0
CPXPARAM_MIP_Strategy_Probe=0
CPXPARAM_MIP_Strategy_RINSHeur=0
CPXPARAM_MIP_Strategy_StartAlgorithm=0
CPXPARAM_MIP_Strategy_SubAlgorithm=2
CPXPARAM_MIP_Strategy_VariableSelect=0
CPXPARAM_Network_NetFind=2
CPXPARAM_Network_Pricing=0
CPXPARAM_Parallel=1
CPXPARAM_Preprocessing_Aggregator=-1
CPXPARAM_Preprocessing_BoundStrength=-1
CPXPARAM_Preprocessing_CoeffReduce=-1
CPXPARAM_Preprocessing_Dependency=-1
CPXPARAM_Preprocessing_Dual=-1
CPXPARAM_Preprocessing_Fill=10
CPXPARAM_Preprocessing_NumPass=-1
CPXPARAM_Preprocessing_Presolve=1
CPXPARAM_Preprocessing_QPMakePSD=1
CPXPARAM_Preprocessing_Reduce=3
CPXPARAM_Preprocessing_Relax=-1
CPXPARAM_Preprocessing_RepeatPresolve=-1
CPXPARAM_Preprocessing_Symmetry=0
CPXPARAM_Read_Scale=0
CPXPARAM_Sifting_Algorithm=0
CPXPARAM_Simplex_Crash=1
CPXPARAM_Simplex_DGradient=0
CPXPARAM_Simplex_Limits_Perturbation=0
CPXPARAM_Simplex_Limits_Singularity=10
CPXPARAM_Simplex_PGradient=3
CPXPARAM_Simplex_Pricing=0
CPXPARAM_Simplex_Refactor=0
ObjectiveValue=37.41
Gap=37.41
UpperBound=1.89795e+06
LowerBound=1.18799e+06
SolverRuntimeSeconds=5.0131
SolverTerminationStatus=Normal
TimeEvaluated=438
MipStartUsed=0
ProducedMipStart=0
EndConfiguration
Configuration:
CPXPARAM_Advance=1
CPXPARAM_Barrier_Algorithm=0
CPXPARAM_Barrier_ColNonzeros=0
CPXPARAM_Barrier_Crossover=0
CPXPARAM_Barrier_Limits_Corrections=-1
CPXPARAM_Barrier_Ordering=2
CPXPARAM_Barrier_StartAlg=1
CPXPARAM_Emphasis_MIP=4
CPXPARAM_Emphasis_Memory=0
CPXPARAM_Emphasis_Numerical=0
CPXPARAM_Feasopt_Mode=0
CPXPARAM_LPMethod=0
CPXPARAM_MIP_Cuts_Cliques=0
CPXPARAM_MIP_Cuts_Covers=0
CPXPARAM_MIP_Cuts_Disjunctive=0
CPXPARAM_MIP_Cuts_FlowCovers=-1
CPXPARAM_MIP_Cuts_GUBCovers=1
CPXPARAM_MIP_Cuts_Gomory=0
CPXPARAM_MIP_Cuts_Implied=2
CPXPARAM_MIP_Cuts_MIRCut=0
CPXPARAM_MIP_Cuts_PathCut=0
CPXPARAM_MIP_Limits_AggForCut=2
CPXPARAM_MIP_Limits_CutPasses=0
CPXPARAM_MIP_Limits_CutsFactor=-1
CPXPARAM_MIP_Limits_GomoryCand=200
CPXPARAM_MIP_Limits_GomoryPass=0
CPXPARAM_MIP_Limits_Nodes=9223372036800000000
CPXPARAM_MIP_Limits_ProbeTime=1e+75
CPXPARAM_MIP_Limits_RepairTries=0
CPXPARAM_MIP_Limits_StrongCand=10
CPXPARAM_MIP_Limits_StrongIt=0
CPXPARAM_MIP_OrderType=0
CPXPARAM_MIP_Strategy_BBInterval=7
CPXPARAM_MIP_Strategy_Branch=0
CPXPARAM_MIP_Strategy_Dive=0
CPXPARAM_MIP_Strategy_File=1
CPXPARAM_MIP_Strategy_HeuristicFreq=0
CPXPARAM_MIP_Strategy_LBHeur=0
CPXPARAM_MIP_Strategy_NodeSelect=1
CPXPARAM_MIP_Strategy_Order=1
CPXPARAM_MIP_Strategy_PresolveNode=0
CPXPARAM_MIP_Strategy_Probe=0
CPXPARAM_MIP_Strategy_RINSHeur=0
CPXPARAM_MIP_Strategy_StartAlgorithm=0
CPXPARAM_MIP_Strategy_SubAlgorithm=2
CPXPARAM_MIP_Strategy_VariableSelect=0
CPXPARAM_Network_NetFind=2
CPXPARAM_Network_Pricing=0
CPXPARAM_Parallel=1
CPXPARAM_Preprocessing_Aggregator=-1
CPXPARAM_Preprocessing_BoundStrength=-1
CPXPARAM_Preprocessing_CoeffReduce=3
CPXPARAM_Preprocessing_Dependency=-1
CPXPARAM_Preprocessing_Dual=-1
CPXPARAM_Preprocessing_Fill=10
CPXPARAM_Preprocessing_NumPass=-1
CPXPARAM_Preprocessing_Presolve=1
CPXPARAM_Preprocessing_QPMakePSD=1
CPXPARAM_Preprocessing_Reduce=3
CPXPARAM_Preprocessing_Relax=-1
CPXPARAM_Preprocessing_RepeatPresolve=-1
CPXPARAM_Preprocessing_Symmetry=0
CPXPARAM_Read_Scale=0
CPXPARAM_Sifting_Algorithm=0
CPXPARAM_Simplex_Crash=1
CPXPARAM_Simplex_DGradient=0
CPXPARAM_Simplex_Limits_Perturbation=0
CPXPARAM_Simplex_Limits_Singularity=10
CPXPARAM_Simplex_PGradient=3
CPXPARAM_Simplex_Pricing=0
CPXPARAM_Simplex_Refactor=0
ObjectiveValue=37.41
Gap=37.41
UpperBound=1.89795e+06
LowerBound=1.18799e+06
SolverRuntimeSeconds=5.01583
SolverTerminationStatus=Normal
TimeEvaluated=443
MipStartUsed=0
ProducedMipStart=0
EndConfiguration
Configuration:
CPXPARAM_Advance=1
CPXPARAM_Barrier_Algorithm=0
CPXPARAM_Barrier_ColNonzeros=0
CPXPARAM_Barrier_Crossover=0
CPXPARAM_Barrier_Limits_Corrections=-1
CPXPARAM_Barrier_Ordering=2
CPXPARAM_Barrier_StartAlg=1
CPXPARAM_Emphasis_MIP=4
CPXPARAM_Emphasis_Memory=0
CPXPARAM_Emphasis_Numerical=0
CPXPARAM_Feasopt_Mode=0
CPXPARAM_LPMethod=0
CPXPARAM_MIP_Cuts_Cliques=0
CPXPARAM_MIP_Cuts_Covers=0
CPXPARAM_MIP_Cuts_Disjunctive=0
CPXPARAM_MIP_Cuts_FlowCovers=-1
CPXPARAM_MIP_Cuts_GUBCovers=1
CPXPARAM_MIP_Cuts_Gomory=2
CPXPARAM_MIP_Cuts_Implied=2
CPXPARAM_MIP_Cuts_MIRCut=0
CPXPARAM_MIP_Cuts_PathCut=0
CPXPARAM_MIP_Limits_AggForCut=2
CPXPARAM_MIP_Limits_CutPasses=0
CPXPARAM_MIP_Limits_CutsFactor=-1
CPXPARAM_MIP_Limits_GomoryCand=200
CPXPARAM_MIP_Limits_GomoryPass=0
CPXPARAM_MIP_Limits_Nodes=9223372036800000000
CPXPARAM_MIP_Limits_ProbeTime=1e+75
CPXPARAM_MIP_Limits_RepairTries=0
CPXPARAM_MIP_Limits_StrongCand=10
CPXPARAM_MIP_Limits_StrongIt=0
CPXPARAM_MIP_OrderType=0
CPXPARAM_MIP_Strategy_BBInterval=7
CPXPARAM_MIP_Strategy_Branch=0
CPXPARAM_MIP_Strategy_Dive=0
CPXPARAM_MIP_Strategy_File=1
CPXPARAM_MIP_Strategy_HeuristicFreq=0
CPXPARAM_MIP_Strategy_LBHeur=0
CPXPARAM_MIP_Strategy_NodeSelect=1
CPXPARAM_MIP_Strategy_Order=1
CPXPARAM_MIP_Strategy_PresolveNode=0
CPXPARAM_MIP_Strategy_Probe=0
CPXPARAM_MIP_Strategy_RINSHeur=0
CPXPARAM_MIP_Strategy_StartAlgorithm=0
CPXPARAM_MIP_Strategy_SubAlgorithm=2
CPXPARAM_MIP_Strategy_VariableSelect=0
CPXPARAM_Network_NetFind=2
CPXPARAM_Network_Pricing=0
CPXPARAM_Parallel=1
CPXPARAM_Preprocessing_Aggregator=-1
CPXPARAM_Preprocessing_BoundStrength=-1
CPXPARAM_Preprocessing_CoeffReduce=-1
CPXPARAM_Preprocessing_Dependency=-1
CPXPARAM_Preprocessing_Dual=-1
CPXPARAM_Preprocessing_Fill=10
CPXPARAM_Preprocessing_NumPass=-1
CPXPARAM_Preprocessing_Presolve=1
CPXPARAM_Preprocessing_QPMakePSD=1
CPXPARAM_Preprocessing_Reduce=3
CPXPARAM_Preprocessing_Relax=-1
CPXPARAM_Preprocessing_RepeatPresolve=-1
CPXPARAM_Preprocessing_Symmetry=0
CPXPARAM_Read_Scale=0
CPXPARAM_Sifting_Algorithm=0
CPXPARAM_Simplex_Crash=1
CPXPARAM_Simplex_DGradient=0
CPXPARAM_Simplex_Limits_Perturbation=0
CPXPARAM_Simplex_Limits_Singularity=10
CPXPARAM_Simplex_PGradient=3
CPXPARAM_Simplex_Pricing=0
CPXPARAM_Simplex_Refactor=0
ObjectiveValue=38.12
Gap=38.12
UpperBound=1.9189e+06
LowerBound=1.18749e+06
SolverRuntimeSeconds=5.01246
SolverTerminationStatus=Normal
TimeEvaluated=448
MipStartUsed=0
ProducedMipStart=0
EndConfiguration
